%nprocshared=32
%mem=100GB
# p opt=tight Int=UltraFine pbe1pbe/cc-pvtz

Autojob.

0 1
C          1.22590       -0.70430       -0.00150
C          1.22590        0.70430       -0.00130
C         -1.22590       -0.70430       -0.00170
C         -1.22590        0.70430       -0.00180
C          0.00000       -1.39100       -0.00190
C          0.00000        1.39110       -0.00170
C          3.67700       -0.70590       -0.00020
C          3.67690        0.70580        0.00050
C         -3.67690       -0.70590        0.00000
C         -3.67690        0.70580       -0.00070
C          2.45130       -1.39240       -0.00130
C          2.45130        1.39230       -0.00020
C         -2.45130       -1.39230       -0.00090
C         -2.45130        1.39230       -0.00180
C          4.90240       -1.39290        0.00050
C          4.90230        1.39290        0.00170
C         -4.90240       -1.39280        0.00180
C         -4.90230        1.39290        0.00030
C          6.11060       -0.69560        0.00190
C          6.11060        0.69560        0.00250
C         -6.11070       -0.69560        0.00320
C         -6.11060        0.69560        0.00240
H          0.00000       -2.48120       -0.00180
H          0.00000        2.48130       -0.00150
H          2.45110       -2.48250       -0.00160
H          2.45100        2.48240        0.00020
H         -2.45110       -2.48240       -0.00050
H         -2.45110        2.48230       -0.00200
H          4.92600       -2.48070        0.00010
H          4.92580        2.48080        0.00210
H         -4.92590       -2.48070        0.00250
H         -4.92590        2.48070       -0.00010
H          7.05080       -1.23930        0.00250
H          7.05070        1.23940        0.00360
H         -7.05090       -1.23920        0.00480
H         -7.05080        1.23930        0.00330

